proyfinal/src/viki/013/experimentInOfficeAgust.take6.output/67029e2d-5bc2-4e46-856d-274bcf65654c.als.dat
{'cnf.clauses': '118081',
 'cnf.totvars': '69608',
 'conflict literals': '876',
 'conflicts': '119',
 'decisions': '4077',
 'memused.mb': '16.58',
 'outcome': 'UNSAT',
 'propagations': '150515',
 'restarts': '2',
 'solver.msecs': 42,
 'task.msecs': 102}
