proyfinal/src/viki/013/experimentInOfficeAgust.take6.output/67029e2d-5bc2-4e46-856d-274bcf65654c.als.out
Reading from standard input... Use '--help' for help.
============================[ Problem Statistics ]=============================
|                                                                             |
|  Number of variables:         69608                                         |
|  Number of clauses:          118081                                         |
|  Parse time:                   0.03 s                                       |
|                                                                             |
============================[ Search Statistics ]==============================
| Conflicts |          ORIGINAL         |          LEARNT          | Progress |
|           |    Vars  Clauses Literals |    Limit  Clauses Lit/Cl |          |
===============================================================================
|       100 |   56569    81407   201502 |    29849       91      9 | 18.732 % |
===============================================================================
restarts              : 2
conflicts             : 119            (2782 /sec)
decisions             : 4077           (0.00 % random) (95315 /sec)
propagations          : 150515         (3518843 /sec)
conflict literals     : 876            (18.89 % deleted)
Memory used           : 16.58 MB
CPU time              : 0.042774 s

UNSATISFIABLE
